10
-377  -319
287  56
-243  -320
-325  60
342  5
-78  -265
284  -154
153  -356
265  -364
-132  256
-209  234
-344  84
-220  313
200  80
63  227
-142  371
7  208
-106  325
-297  500
-100  59
382  -229
-414  493
420  78
184  -102
-461  175
-277  163
-153  -72
92  217
-263  -477
129  -175
350  161
453  40
-36  -379
352  -402
-428  -94
-43  267
0  -80
328  462
-28  321
264  -453
-15  -488
-69  -452
-63  473
-186  245
-77  454
463  -115
292  225
492  223
347  468
182  -186
